(declare-fun i2 () Int)
(get-qe (exists ((>   Int) (div Int)                                                   )                                                                                                                                                                          (> 665                 (div i2 850)                 )     ))
